row=10;
column=10;
Board=[|0,0,2,0,0,0,0,0,0,0|0,0,0,0,0,0,0,0,0,0|0,0,0,0,0,0,0,0,0,0|0,0,0,0,0,0,0,0,0,0|3,0,0,0,0,1,0,0,0,0|0,0,0,3,0,0,0,0,0,2|0,0,0,0,0,0,0,0,0,0|0,0,4,0,0,0,0,0,0,3|0,0,0,0,0,0,0,0,0,0|0,0,0,0,0,0,0,0,0,0|];
right = [2,2,3,2,4,2,1,4,0,0];
bottom = [2,0,4,3,2,1,0,3,0,5];
